outputs/uuf50-0102/n46_n11_34_42.res
%RESA32 50 218

219 4 151 205 4 -24 27 13 23 4
220 -13 19 219 5 -24 -12 23 -38 27 5
221 -23 58 220 6 36 -24 -12 -39 -38 27 6
222 12 136 221 6 36 -24 9 -39 -38 27 6
223 -36 34 222 6 -24 9 27 -39 -38 -37 6
224 -27 212 223 7 -24 9 8 -40 -39 -38 -37 7
225 -9 101 224 6 8 -24 -40 -39 -38 -37 6
226 2 126 213 4 -9 36 29 15 4
227 -29 177 226 4 -30 36 15 -9 4
228 9 136 227 4 -30 36 12 15 4
229 -7 179 22 4 11 23 -18 31 4
230 -23 3 229 4 11 31 46 -18 4
231 18 16 230 5 11 46 -40 -36 31 5
232 36 228 231 7 -30 11 12 46 15 -40 31 7
233 -12 140 232 7 -30 11 46 15 48 -40 31 7
234 -15 69 233 7 -30 11 44 46 48 -40 31 7
235 30 83 234 8 11 44 46 48 -41 -40 -37 31 8
236 41 42 235 8 -22 11 44 46 48 -40 -37 31 8
237 -31 125 236 7 -22 11 44 46 48 -40 -37 7
238 -44 95 237 8 -22 11 46 48 -40 -8 -37 -3 8
239 22 112 238 9 33 11 46 48 -40 -8 -37 -3 -34 9
240 3 53 239 9 33 -24 -8 11 46 48 -40 -37 -34 9
241 -33 40 240 8 -24 -8 11 46 48 -40 -37 -34 8
242 8 225 241 9 -24 11 46 48 -40 -39 -38 -37 -34 9
243 -48 150 242 8 -24 11 46 -40 -39 -38 -37 -34 8
244 31 179 125 4 -7 -22 11 -18 4
245 22 112 244 5 33 11 -18 -7 -34 5
246 7 22 245 5 33 11 -18 23 -34 5
247 -33 180 246 4 11 -34 -18 23 4
248 -23 3 247 4 46 11 -34 -18 4
249 -15 88 140 3 48 27 -12 3
250 12 136 249 4 48 9 27 36 4
251 -27 212 250 5 36 8 9 48 -40 5
252 -9 101 251 4 48 8 36 -40 4
253 12 228 140 4 48 -30 36 15 4
254 -15 26 253 5 -30 36 48 -41 24 5
255 30 83 254 5 36 48 -41 24 -37 5
256 41 42 255 5 36 -22 48 24 -37 5
257 22 112 256 6 33 36 48 24 -37 -34 6
258 -33 40 257 6 36 -8 48 24 -37 -34 6
259 8 252 258 6 36 48 -40 24 -37 -34 6
260 -48 150 259 6 36 -40 24 -38 -37 -34 6
261 -36 16 260 6 18 -40 24 -38 -37 -34 6
262 -49 196 7 3 40 -47 18 3
263 47 76 262 3 40 -38 18 3
264 -39 243 164 7 -24 11 46 -40 -38 -37 -34 7
265 24 261 264 7 11 46 18 -40 -38 -37 -34 7
266 40 263 265 6 11 46 18 -38 -37 -34 6
267 -19 181 94 4 -16 -45 -43 38 4
268 16 23 267 5 36 38 -45 -43 -10 5
269 45 122 268 6 36 38 -43 -10 -39 30 6
270 10 145 269 7 -32 36 -27 38 -43 -39 30 7
271 -30 177 270 7 -32 -29 36 -27 38 -43 -39 7
272 27 92 271 7 -32 -29 36 38 -43 -39 31 7
273 29 206 272 6 -32 36 38 -43 -39 31 6
274 -45 181 157 4 -12 -19 38 6 4
275 12 120 274 4 20 -19 38 6 4
276 19 94 275 5 38 6 -16 20 -43 5
277 16 99 276 5 3 38 6 20 -43 5
278 -6 98 277 5 3 38 46 20 -43 5
279 -3 70 278 6 38 46 47 -49 20 -43 6
280 -47 196 279 6 38 40 46 -49 20 -43 6
281 49 123 280 7 38 40 46 -13 20 -43 -36 7
282 13 215 281 8 -27 38 40 46 20 -43 23 -36 8
283 -40 16 282 8 -27 38 46 18 20 -43 23 -36 8
284 27 34 283 8 38 46 18 20 -43 23 -37 -36 8
285 36 273 284 10 -32 38 46 18 20 -43 23 -39 -37 31 10
286 -20 210 285 10 -32 38 -24 46 18 -43 23 -39 -37 31 10
287 -23 178 286 10 -32 -28 38 -24 46 18 -43 -39 -37 31 10
288 32 49 287 9 -28 38 -24 46 18 -43 -39 -37 31 9
289 -31 21 288 8 -28 38 -24 46 18 -43 -39 -37 8
290 39 164 289 7 -28 38 -24 46 18 -43 -37 7
