temp-work/n46_n11_34_42.proof
8 -24 -40 -39 -38 -37 0
-30 36 12 15 0
-24 11 46 -40 -39 -38 -37 -34 0
11 -34 46 -18 0
8 48 36 -40 0
18 -40 24 -38 -37 -34 0
40 -38 18 0
11 46 18 -38 -37 -34 0
-32 36 38 -43 -39 31 0
-28 38 -24 46 18 -43 -37 0
0
